c "452366.clq"
p edge 100 1344
e 1 17
e 1 18
e 1 19
e 1 20
e 1 21
e 1 22
e 1 23
e 1 25
e 1 26
e 1 27
e 1 28
e 1 29
e 1 31
e 1 34
e 1 37
e 1 38
e 1 39
e 1 40
e 1 43
e 1 47
e 1 48
e 1 50
e 1 63
e 1 67
e 1 69
e 1 70
e 1 75
e 1 79
e 1 89
e 1 100
e 2 17
e 2 18
e 2 19
e 2 20
e 2 21
e 2 22
e 2 23
e 2 24
e 2 25
e 2 26
e 2 29
e 2 30
e 2 31
e 2 32
e 2 36
e 2 54
e 2 55
e 2 58
e 2 64
e 2 78
e 2 81
e 2 84
e 2 90
e 2 96
e 3 17
e 3 18
e 3 19
e 3 21
e 3 22
e 3 24
e 3 26
e 3 27
e 3 30
e 3 34
e 3 36
e 3 39
e 3 43
e 3 45
e 3 50
e 3 56
e 3 63
e 3 69
e 3 72
e 3 83
e 3 84
e 3 92
e 4 17
e 4 18
e 4 19
e 4 20
e 4 21
e 4 22
e 4 24
e 4 27
e 4 31
e 4 33
e 4 34
e 4 37
e 4 39
e 4 48
e 4 49
e 4 53
e 4 54
e 4 58
e 4 73
e 4 75
e 4 76
e 4 78
e 4 84
e 5 17
e 5 21
e 5 23
e 5 30
e 5 36
e 5 42
e 5 44
e 5 45
e 5 54
e 5 55
e 5 58
e 5 64
e 5 72
e 5 89
e 5 93
e 6 17
e 6 18
e 6 20
e 6 23
e 6 24
e 6 25
e 6 26
e 6 32
e 6 36
e 6 39
e 6 40
e 6 46
e 6 47
e 6 51
e 6 52
e 6 56
e 6 85
e 6 97
e 6 99
e 7 17
e 7 18
e 7 19
e 7 20
e 7 21
e 7 22
e 7 23
e 7 25
e 7 26
e 7 28
e 7 29
e 7 31
e 7 34
e 7 36
e 7 38
e 7 41
e 7 43
e 7 45
e 7 48
e 7 57
e 7 63
e 7 71
e 7 81
e 8 17
e 8 18
e 8 19
e 8 20
e 8 21
e 8 22
e 8 23
e 8 24
e 8 27
e 8 29
e 8 33
e 8 36
e 8 37
e 8 40
e 8 41
e 8 54
e 8 64
e 8 65
e 8 76
e 8 84
e 8 94
e 9 17
e 9 18
e 9 19
e 9 20
e 9 21
e 9 22
e 9 23
e 9 24
e 9 26
e 9 27
e 9 30
e 9 34
e 9 35
e 9 38
e 9 40
e 9 45
e 9 46
e 9 51
e 9 56
e 9 61
e 9 64
e 9 66
e 9 67
e 9 77
e 9 78
e 9 80
e 9 83
e 9 84
e 9 90
e 9 96
e 9 97
e 9 99
e 10 17
e 10 18
e 10 19
e 10 20
e 10 22
e 10 24
e 10 25
e 10 26
e 10 30
e 10 32
e 10 33
e 10 35
e 10 37
e 10 38
e 10 40
e 10 45
e 10 47
e 10 52
e 10 58
e 10 60
e 10 63
e 10 64
e 10 67
e 10 72
e 10 73
e 10 75
e 10 76
e 10 80
e 10 83
e 10 86
e 10 89
e 10 91
e 10 96
e 10 99
e 10 100
e 11 17
e 11 18
e 11 19
e 11 22
e 11 23
e 11 24
e 11 25
e 11 27
e 11 28
e 11 34
e 11 39
e 11 41
e 11 47
e 11 59
e 11 60
e 11 70
e 11 98
e 12 17
e 12 18
e 12 19
e 12 20
e 12 21
e 12 22
e 12 23
e 12 24
e 12 25
e 12 27
e 12 28
e 12 35
e 12 37
e 12 42
e 12 45
e 12 49
e 12 51
e 12 55
e 12 57
e 12 61
e 12 69
e 12 78
e 12 81
e 12 85
e 13 17
e 13 18
e 13 19
e 13 20
e 13 21
e 13 24
e 13 25
e 13 26
e 13 29
e 13 30
e 13 37
e 13 45
e 13 49
e 13 50
e 13 52
e 13 54
e 13 56
e 13 61
e 13 66
e 13 77
e 13 89
e 13 95
e 13 99
e 14 17
e 14 18
e 14 19
e 14 20
e 14 21
e 14 23
e 14 26
e 14 27
e 14 29
e 14 31
e 14 32
e 14 33
e 14 34
e 14 35
e 14 37
e 14 39
e 14 41
e 14 42
e 14 48
e 14 51
e 14 58
e 14 62
e 14 64
e 14 76
e 14 77
e 14 81
e 14 88
e 14 97
e 14 98
e 15 17
e 15 18
e 15 19
e 15 20
e 15 21
e 15 22
e 15 23
e 15 28
e 15 30
e 15 31
e 15 34
e 15 41
e 15 42
e 15 44
e 15 54
e 15 55
e 15 59
e 15 68
e 15 74
e 15 77
e 15 79
e 15 83
e 16 17
e 16 18
e 16 19
e 16 20
e 16 22
e 16 23
e 16 27
e 16 28
e 16 29
e 16 30
e 16 31
e 16 32
e 16 35
e 16 40
e 16 44
e 16 47
e 16 49
e 16 58
e 16 60
e 16 61
e 16 62
e 16 65
e 16 68
e 16 69
e 16 70
e 16 74
e 16 75
e 16 76
e 16 82
e 16 83
e 16 85
e 16 88
e 16 91
e 16 92
e 16 95
e 17 18
e 17 19
e 17 20
e 17 21
e 17 22
e 17 23
e 17 24
e 17 25
e 17 26
e 17 27
e 17 28
e 17 29
e 17 30
e 17 33
e 17 34
e 17 35
e 17 36
e 17 37
e 17 38
e 17 39
e 17 40
e 17 42
e 17 43
e 17 45
e 17 47
e 17 48
e 17 49
e 17 50
e 17 51
e 17 52
e 17 54
e 17 62
e 17 64
e 17 66
e 17 68
e 17 71
e 17 72
e 17 73
e 17 79
e 17 80
e 17 81
e 17 82
e 17 83
e 17 87
e 17 92
e 17 94
e 17 95
e 17 98
e 17 99
e 17 100
e 18 19
e 18 20
e 18 21
e 18 22
e 18 24
e 18 25
e 18 26
e 18 28
e 18 29
e 18 30
e 18 31
e 18 32
e 18 33
e 18 35
e 18 37
e 18 38
e 18 39
e 18 40
e 18 47
e 18 48
e 18 49
e 18 50
e 18 51
e 18 52
e 18 53
e 18 55
e 18 56
e 18 60
e 18 61
e 18 63
e 18 66
e 18 67
e 18 69
e 18 70
e 18 76
e 18 77
e 18 78
e 18 80
e 18 82
e 18 86
e 18 88
e 18 89
e 18 90
e 18 92
e 18 93
e 18 99
e 18 100
e 19 20
e 19 21
e 19 23
e 19 24
e 19 25
e 19 26
e 19 31
e 19 33
e 19 34
e 19 35
e 19 36
e 19 37
e 19 38
e 19 40
e 19 41
e 19 42
e 19 43
e 19 47
e 19 49
e 19 50
e 19 55
e 19 57
e 19 59
e 19 62
e 19 68
e 19 71
e 19 72
e 19 79
e 19 80
e 19 84
e 19 88
e 19 89
e 19 95
e 19 96
e 19 98
e 19 99
e 20 21
e 20 22
e 20 24
e 20 25
e 20 26
e 20 27
e 20 28
e 20 30
e 20 31
e 20 32
e 20 33
e 20 34
e 20 36
e 20 38
e 20 39
e 20 44
e 20 46
e 20 49
e 20 53
e 20 55
e 20 59
e 20 61
e 20 62
e 20 63
e 20 65
e 20 68
e 20 69
e 20 73
e 20 78
e 20 80
e 20 82
e 20 85
e 20 94
e 20 98
e 21 22
e 21 23
e 21 24
e 21 25
e 21 26
e 21 27
e 21 28
e 21 29
e 21 30
e 21 32
e 21 33
e 21 34
e 21 35
e 21 36
e 21 37
e 21 38
e 21 39
e 21 40
e 21 41
e 21 42
e 21 43
e 21 44
e 21 48
e 21 49
e 21 50
e 21 53
e 21 54
e 21 59
e 21 64
e 21 66
e 21 69
e 21 70
e 21 74
e 21 75
e 21 77
e 21 81
e 21 82
e 21 85
e 21 87
e 21 95
e 21 97
e 21 99
e 21 100
e 22 23
e 22 24
e 22 25
e 22 26
e 22 27
e 22 28
e 22 29
e 22 32
e 22 33
e 22 34
e 22 35
e 22 36
e 22 37
e 22 38
e 22 39
e 22 40
e 22 41
e 22 44
e 22 49
e 22 50
e 22 51
e 22 54
e 22 55
e 22 56
e 22 64
e 22 71
e 22 72
e 22 74
e 22 77
e 22 79
e 22 90
e 22 91
e 22 92
e 22 95
e 23 25
e 23 27
e 23 28
e 23 29
e 23 31
e 23 32
e 23 33
e 23 35
e 23 38
e 23 41
e 23 48
e 23 50
e 23 51
e 23 52
e 23 53
e 23 54
e 23 55
e 23 60
e 23 62
e 23 63
e 23 67
e 23 73
e 23 74
e 23 77
e 23 80
e 23 81
e 23 85
e 23 87
e 23 91
e 23 96
e 23 98
e 23 100
e 24 25
e 24 26
e 24 27
e 24 28
e 24 29
e 24 30
e 24 32
e 24 35
e 24 36
e 24 38
e 24 39
e 24 41
e 24 42
e 24 43
e 24 44
e 24 49
e 24 50
e 24 51
e 24 52
e 24 53
e 24 54
e 24 55
e 24 56
e 24 58
e 24 65
e 24 67
e 24 68
e 24 69
e 24 70
e 24 73
e 24 81
e 24 90
e 24 91
e 24 92
e 24 94
e 24 95
e 24 96
e 24 97
e 25 27
e 25 28
e 25 29
e 25 31
e 25 32
e 25 33
e 25 34
e 25 46
e 25 48
e 25 50
e 25 51
e 25 52
e 25 55
e 25 56
e 25 57
e 25 62
e 25 74
e 25 76
e 25 79
e 25 80
e 25 87
e 25 88
e 25 89
e 25 91
e 26 28
e 26 29
e 26 30
e 26 31
e 26 32
e 26 34
e 26 36
e 26 37
e 26 41
e 26 46
e 26 48
e 26 51
e 26 52
e 26 53
e 26 55
e 26 56
e 26 58
e 26 61
e 26 62
e 26 65
e 26 67
e 26 70
e 26 79
e 26 84
e 26 86
e 26 90
e 26 91
e 27 28
e 27 30
e 27 31
e 27 32
e 27 33
e 27 35
e 27 39
e 27 40
e 27 41
e 27 44
e 27 46
e 27 48
e 27 53
e 27 58
e 27 59
e 27 61
e 27 63
e 27 64
e 27 65
e 27 67
e 27 72
e 27 81
e 27 85
e 27 87
e 27 88
e 27 93
e 27 95
e 27 97
e 27 98
e 28 29
e 28 31
e 28 33
e 28 35
e 28 36
e 28 38
e 28 43
e 28 44
e 28 48
e 28 49
e 28 57
e 28 60
e 28 61
e 28 64
e 28 72
e 28 73
e 28 76
e 28 79
e 28 83
e 28 84
e 28 87
e 28 88
e 28 91
e 28 97
e 28 98
e 28 99
e 29 30
e 29 31
e 29 32
e 29 33
e 29 34
e 29 40
e 29 42
e 29 43
e 29 46
e 29 47
e 29 51
e 29 52
e 29 53
e 29 57
e 29 58
e 29 63
e 29 64
e 29 65
e 29 69
e 29 71
e 29 75
e 30 32
e 30 33
e 30 36
e 30 38
e 30 39
e 30 42
e 30 43
e 30 44
e 30 45
e 30 46
e 30 53
e 30 56
e 30 58
e 30 61
e 30 62
e 30 66
e 30 70
e 30 72
e 30 79
e 30 82
e 30 84
e 30 94
e 30 96
e 30 100
e 31 35
e 31 36
e 31 42
e 31 43
e 31 44
e 31 46
e 31 47
e 31 50
e 31 56
e 31 57
e 31 62
e 31 68
e 31 73
e 31 74
e 31 82
e 31 86
e 31 91
e 31 96
e 31 97
e 32 39
e 32 41
e 32 45
e 32 47
e 32 49
e 32 52
e 32 53
e 32 55
e 32 56
e 32 57
e 32 60
e 32 61
e 32 71
e 32 74
e 32 76
e 32 77
e 32 78
e 32 93
e 32 96
e 32 100
e 33 35
e 33 37
e 33 41
e 33 44
e 33 48
e 33 53
e 33 65
e 33 70
e 33 81
e 33 82
e 33 84
e 33 85
e 33 88
e 33 94
e 34 37
e 34 38
e 34 39
e 34 40
e 34 43
e 34 44
e 34 45
e 34 46
e 34 47
e 34 51
e 34 54
e 34 55
e 34 57
e 34 59
e 34 60
e 34 61
e 34 63
e 34 64
e 34 65
e 34 68
e 34 70
e 34 71
e 34 72
e 34 85
e 34 87
e 34 89
e 34 99
e 35 37
e 35 40
e 35 41
e 35 42
e 35 43
e 35 44
e 35 45
e 35 50
e 35 62
e 35 65
e 35 66
e 35 70
e 35 71
e 35 72
e 35 80
e 35 86
e 35 91
e 35 94
e 36 43
e 36 46
e 36 58
e 36 77
e 36 78
e 36 79
e 36 81
e 36 83
e 36 88
e 36 90
e 36 93
e 36 99
e 36 100
e 37 38
e 37 42
e 37 43
e 37 46
e 37 48
e 37 50
e 37 51
e 37 53
e 37 57
e 37 58
e 37 59
e 37 63
e 37 71
e 37 75
e 37 78
e 37 82
e 37 96
e 37 100
e 38 40
e 38 41
e 38 42
e 38 43
e 38 45
e 38 48
e 38 49
e 38 50
e 38 52
e 38 54
e 38 58
e 38 61
e 38 66
e 38 67
e 38 72
e 38 73
e 38 74
e 38 81
e 38 82
e 38 86
e 38 87
e 38 92
e 38 93
e 38 94
e 38 97
e 39 42
e 39 44
e 39 45
e 39 46
e 39 47
e 39 51
e 39 52
e 39 57
e 39 62
e 39 68
e 39 69
e 39 74
e 39 75
e 39 80
e 39 82
e 39 83
e 39 84
e 39 91
e 39 92
e 39 94
e 39 95
e 40 45
e 40 46
e 40 47
e 40 53
e 40 55
e 40 58
e 40 61
e 40 62
e 40 63
e 40 67
e 40 68
e 40 72
e 40 76
e 40 80
e 40 85
e 40 88
e 40 91
e 40 99
e 41 42
e 41 44
e 41 45
e 41 46
e 41 47
e 41 50
e 41 52
e 41 61
e 41 65
e 41 69
e 41 70
e 41 73
e 41 75
e 41 78
e 41 86
e 41 92
e 41 95
e 42 49
e 42 54
e 42 57
e 42 60
e 42 62
e 42 74
e 42 81
e 42 82
e 42 83
e 42 97
e 42 98
e 43 48
e 43 49
e 43 52
e 43 57
e 43 59
e 43 60
e 43 66
e 43 68
e 43 70
e 43 74
e 43 76
e 43 79
e 43 81
e 43 84
e 43 86
e 43 87
e 43 89
e 43 90
e 43 93
e 44 53
e 44 54
e 44 59
e 44 68
e 44 70
e 44 77
e 44 78
e 44 89
e 44 91
e 44 99
e 45 46
e 45 57
e 45 64
e 45 68
e 45 85
e 46 47
e 46 60
e 46 66
e 46 72
e 46 73
e 46 82
e 46 83
e 46 85
e 46 89
e 46 91
e 46 94
e 47 59
e 47 60
e 47 63
e 47 65
e 47 69
e 47 73
e 47 76
e 47 78
e 47 84
e 47 86
e 47 87
e 47 89
e 47 94
e 48 62
e 48 66
e 48 70
e 48 82
e 48 84
e 48 93
e 48 94
e 49 51
e 49 56
e 49 63
e 49 72
e 49 73
e 49 77
e 49 78
e 49 86
e 49 87
e 49 88
e 49 89
e 49 93
e 49 94
e 49 95
e 49 97
e 50 52
e 50 53
e 50 58
e 50 59
e 50 60
e 50 71
e 50 76
e 50 90
e 51 54
e 51 61
e 51 62
e 51 67
e 51 75
e 51 77
e 51 80
e 51 83
e 51 87
e 51 89
e 51 90
e 51 93
e 52 56
e 52 74
e 52 86
e 52 92
e 52 97
e 53 57
e 53 60
e 53 65
e 53 69
e 53 73
e 53 83
e 53 87
e 53 92
e 53 94
e 53 99
e 53 100
e 54 55
e 54 56
e 54 59
e 54 63
e 54 64
e 54 75
e 54 80
e 54 88
e 54 90
e 54 96
e 54 98
e 55 56
e 55 57
e 55 59
e 55 65
e 55 66
e 55 67
e 55 70
e 55 74
e 55 76
e 55 78
e 55 86
e 55 97
e 55 98
e 55 100
e 56 59
e 56 60
e 56 67
e 56 76
e 56 83
e 56 93
e 57 60
e 57 66
e 57 72
e 57 77
e 58 59
e 58 64
e 58 69
e 58 86
e 58 91
e 58 93
e 58 96
e 59 75
e 59 77
e 59 79
e 59 88
e 59 90
e 59 96
e 60 68
e 60 75
e 60 88
e 60 90
e 61 63
e 61 65
e 61 66
e 61 68
e 61 71
e 61 74
e 61 95
e 62 65
e 62 73
e 62 74
e 62 76
e 62 79
e 62 92
e 63 66
e 63 67
e 63 68
e 63 69
e 63 71
e 63 73
e 63 75
e 63 77
e 63 84
e 63 98
e 64 67
e 65 66
e 65 67
e 65 97
e 65 98
e 65 100
e 66 71
e 67 69
e 67 94
e 67 100
e 68 71
e 68 84
e 68 89
e 69 71
e 69 75
e 69 78
e 69 79
e 69 80
e 69 81
e 69 93
e 69 95
e 69 96
e 69 97
e 69 98
e 69 99
e 69 100
e 70 71
e 70 80
e 70 81
e 70 83
e 70 85
e 70 87
e 70 93
e 70 96
e 71 79
e 71 82
e 71 85
e 71 93
e 72 87
e 72 92
e 72 99
e 73 75
e 73 85
e 74 78
e 74 86
e 75 79
e 75 85
e 75 95
e 78 82
e 79 80
e 79 83
e 79 90
e 79 92
e 80 86
e 81 87
e 81 91
e 81 92
e 81 98
e 82 86
e 82 88
e 82 92
e 83 90
e 83 95
e 84 95
e 86 88
e 86 89
e 88 90
e 89 94
e 90 96
e 91 97
e 91 100
e 92 93
e 96 98
